
Gurobi 13.0.2 (win64) logging started Thu Jul 23 16:19:39 2026

Set parameter LogFile to value "E:\codes\ExactEBRP\results\gf_gurobi_performance_recovery_round29\runs\stage2__moderate_seed4302__c3_replica__300s\external\native_logs\R.0.0.1.0.0.0.0.1.0_terminal_mip.gurobi.log"
Gurobi Optimizer version 13.0.2 build v13.0.2rc1 (win64 - Windows 10.0 (19045.2))

CPU model: 12th Gen Intel(R) Core(TM) i7-12700KF, instruction set [SSE2|AVX|AVX2]
Thread count: 12 physical cores, 20 logical processors, using up to 1 threads

Non-default parameters:
TimeLimit  6.1970027499999986e+01
MIPGap  0
MIPGapAbs  0
LogToConsole  0
Threads  1

Optimize a model with 11919 rows, 3378 columns and 67378 nonzeros (Min)
Model fingerprint: 0xa27a4890
Model has 21 linear objective coefficients
Variable types: 1686 continuous, 1692 integer (1492 binary)
Coefficient statistics:
  Matrix range     [6e-03, 2e+04]
  Objective range  [7e-03, 1e+00]
  Bounds range     [6e-03, 1e+02]
  RHS range        [6e-03, 5e+04]

Presolve removed 4937 rows and 680 columns
Presolve time: 0.29s
Presolved: 6982 rows, 2698 columns, 40786 nonzeros
Variable types: 1337 continuous, 1361 integer (1207 binary)

Root relaxation: objective 6.257478e-03, 1632 iterations, 0.04 seconds (0.10 work units)

    Nodes    |    Current Node    |     Objective Bounds      |     Work
 Expl Unexpl |  Obj  Depth IntInf | Incumbent    BestBd   Gap | It/Node Time

     0     0    0.00626    0  164          -    0.00626      -     -    0s
     0     0    0.00626    0  141          -    0.00626      -     -    0s
     0     0    0.00626    0  190          -    0.00626      -     -    0s
     0     0    0.00626    0  190          -    0.00626      -     -    0s
     0     0    0.00626    0  174          -    0.00626      -     -    0s
     0     0    0.00626    0  233          -    0.00626      -     -    1s
     0     0    0.00626    0  233          -    0.00626      -     -    1s
     0     0    0.00626    0  212          -    0.00626      -     -    1s
     0     0    0.00626    0  193          -    0.00626      -     -    1s
     0     0    0.00626    0  242          -    0.00626      -     -    1s
     0     0    0.00626    0  242          -    0.00626      -     -    1s
     0     0    0.00626    0  204          -    0.00626      -     -    2s
     0     0    0.00626    0  191          -    0.00626      -     -    2s
     0     0    0.00626    0  224          -    0.00626      -     -    2s
     0     0    0.00626    0  224          -    0.00626      -     -    2s
     0     0    0.00626    0  224          -    0.00626      -     -    2s
     0     0    0.00626    0  223          -    0.00626      -     -    2s
     0     0    0.00626    0  223          -    0.00626      -     -    2s
     0     2    0.00626    0  203          -    0.00626      -     -    3s

Cutting planes:
  Learned: 7
  Gomory: 2
  Cover: 18
  Implied bound: 112
  Clique: 14
  MIR: 52
  Flow cover: 28
  Zero half: 10
  Network: 4
  RLT: 8
  Relax-and-lift: 54
  BQP: 5

Explored 13 nodes (28405 simplex iterations) in 4.36 seconds (8.73 work units)
Thread count was 1 (of 20 available processors)

Solution count 0

Model is infeasible
Best objective -, best bound -, gap -

User-callback calls 1839, time in user-callback 0.00 sec
